p edge 28 94
e 1 2
e 1 3
e 1 4
e 1 8
e 1 9
e 1 10
e 1 11
e 1 13
e 1 26
e 1 27
e 2 3
e 2 4
e 2 5
e 2 6
e 2 8
e 2 9
e 2 10
e 2 11
e 2 12
e 2 13
e 2 26
e 2 27
e 3 4
e 3 8
e 3 9
e 3 10
e 3 11
e 3 13
e 3 26
e 3 27
e 4 5
e 4 6
e 4 8
e 4 9
e 4 10
e 4 11
e 4 12
e 4 13
e 4 14
e 4 26
e 4 27
e 5 6
e 5 8
e 5 12
e 5 13
e 5 27
e 6 8
e 6 12
e 6 13
e 6 27
e 7 24
e 7 28
e 8 9
e 8 10
e 8 11
e 8 12
e 8 13
e 8 14
e 8 15
e 8 26
e 8 27
e 8 28
e 9 10
e 9 11
e 9 13
e 9 26
e 9 27
e 10 11
e 10 13
e 10 26
e 10 27
e 11 13
e 11 26
e 11 27
e 12 13
e 12 27
e 13 14
e 13 26
e 13 27
e 14 27
e 15 16
e 15 17
e 16 17
e 16 18
e 16 19
e 16 20
e 18 19
e 18 20
e 19 20
e 21 22
e 21 23
e 22 23
e 24 28
e 26 27
